proyfinal/src/viki/013/andrea/andrea-localstore/experimentInOfficeAgust.take6/worker_6/9748060e-2a67-4927-be9c-22aaa159839b.als.cnf.out
Reading from standard input... Use '--help' for help.
============================[ Problem Statistics ]=============================
|                                                                             |
|  Number of variables:         87638                                         |
|  Number of clauses:          161767                                         |
|  Parse time:                   0.04 s                                       |
|                                                                             |
============================[ Search Statistics ]==============================
| Conflicts |          ORIGINAL         |          LEARNT          | Progress |
|           |    Vars  Clauses Literals |    Limit  Clauses Lit/Cl |          |
===============================================================================
|       100 |   63799   110270   275630 |    40432       99     44 | 27.202 % |
|       250 |   63799   110226   275540 |    44475      249     67 | 27.202 % |
|       475 |   52001   110226   275540 |    48923      472     77 | 40.664 % |
|       812 |   51987    76093   191475 |    53815      800     99 | 40.680 % |
|      1318 |   51845    75443   189937 |    59196     1302     86 | 40.842 % |
|      2077 |   51382    73914   186033 |    65116     2036     79 | 41.370 % |
|      3216 |   51115    73830   185840 |    71628     3166     70 | 41.675 % |
|      4924 |   50952    72291   182127 |    78791     4853     65 | 41.861 % |
|      7486 |   49997    69140   174493 |    86670     7114     56 | 42.951 % |
|     11330 |   49788    67933   171506 |    95337    10929     54 | 43.189 % |
|     17096 |   49646    67264   169957 |   104871    15502     53 | 43.351 % |
===============================================================================
restarts              : 68
conflicts             : 19806          (7398 /sec)
decisions             : 58335          (0.00 % random) (21788 /sec)
propagations          : 27749851       (10364574 /sec)
conflict literals     : 981931         (45.13 % deleted)
Memory used           : 28.50 MB
CPU time              : 2.67738 s

UNSATISFIABLE
